
(set-logic HORN)
(declare-datatypes ((Tok_2 0)) (((C_88) (D_8) (X_127807) (Y_3274) (Pl_1))))
(declare-fun diseqTok_2 (Tok_2 Tok_2) Bool)
(declare-fun isC_47 (Tok_2) Bool)
(declare-fun isD_4 (Tok_2) Bool)
(declare-fun isX_112 (Tok_2) Bool)
(declare-fun isY_16 (Tok_2) Bool)
(declare-fun isPl_1 (Tok_2) Bool)
(assert (isC_47 C_88))
(assert (isD_4 D_8))
(assert (isX_112 X_127807))
(assert (isY_16 Y_3274))
(assert (isPl_1 Pl_1))
(assert (diseqTok_2 C_88 D_8))
(assert (diseqTok_2 C_88 X_127807))
(assert (diseqTok_2 C_88 Y_3274))
(assert (diseqTok_2 C_88 Pl_1))
(assert (diseqTok_2 D_8 C_88))
(assert (diseqTok_2 X_127807 C_88))
(assert (diseqTok_2 Y_3274 C_88))
(assert (diseqTok_2 Pl_1 C_88))
(assert (diseqTok_2 D_8 X_127807))
(assert (diseqTok_2 D_8 Y_3274))
(assert (diseqTok_2 D_8 Pl_1))
(assert (diseqTok_2 X_127807 D_8))
(assert (diseqTok_2 Y_3274 D_8))
(assert (diseqTok_2 Pl_1 D_8))
(assert (diseqTok_2 X_127807 Y_3274))
(assert (diseqTok_2 X_127807 Pl_1))
(assert (diseqTok_2 Y_3274 X_127807))
(assert (diseqTok_2 Pl_1 X_127807))
(assert (diseqTok_2 Y_3274 Pl_1))
(assert (diseqTok_2 Pl_1 Y_3274))
(declare-datatypes ((list_418 0)) (((nil_480) (cons_412 (head_824 Tok_2) (tail_830 list_418)))))
(declare-fun diseqlist_412 (list_418 list_418) Bool)
(declare-fun head_825 (Tok_2 list_418) Bool)
(declare-fun tail_831 (list_418 list_418) Bool)
(declare-fun isnil_480 (list_418) Bool)
(declare-fun iscons_412 (list_418) Bool)
(assert (forall ((x_127837 Tok_2) (x_127838 list_418))
	(head_825 x_127837 (cons_412 x_127837 x_127838))))
(assert (forall ((x_127837 Tok_2) (x_127838 list_418))
	(tail_831 x_127838 (cons_412 x_127837 x_127838))))
(assert (isnil_480 nil_480))
(assert (forall ((x_127840 Tok_2) (x_127841 list_418))
	(iscons_412 (cons_412 x_127840 x_127841))))
(assert (forall ((x_127842 Tok_2) (x_127843 list_418))
	(diseqlist_412 nil_480 (cons_412 x_127842 x_127843))))
(assert (forall ((x_127844 Tok_2) (x_127845 list_418))
	(diseqlist_412 (cons_412 x_127844 x_127845) nil_480)))
(assert (forall ((x_127846 Tok_2) (x_127847 list_418) (x_127848 Tok_2) (x_127849 list_418))
	(=> (diseqTok_2 x_127846 x_127848) (diseqlist_412 (cons_412 x_127846 x_127847) (cons_412 x_127848 x_127849)))))
(assert (forall ((x_127846 Tok_2) (x_127847 list_418) (x_127848 Tok_2) (x_127849 list_418))
	(=> (diseqlist_412 x_127847 x_127849) (diseqlist_412 (cons_412 x_127846 x_127847) (cons_412 x_127848 x_127849)))))
(declare-datatypes ((E_69 0)) (((Plus_139 (projPlus_60 E_69) (projPlus_61 E_69)) (EX_1) (EY_1))))
(declare-fun diseqE_9 (E_69 E_69) Bool)
(declare-fun projPlus_62 (E_69 E_69) Bool)
(declare-fun projPlus_63 (E_69 E_69) Bool)
(declare-fun isPlus_16 (E_69) Bool)
(declare-fun isEX_1 (E_69) Bool)
(declare-fun isEY_1 (E_69) Bool)
(assert (forall ((x_127850 E_69) (x_127851 E_69))
	(projPlus_62 x_127850 (Plus_139 x_127850 x_127851))))
(assert (forall ((x_127850 E_69) (x_127851 E_69))
	(projPlus_63 x_127851 (Plus_139 x_127850 x_127851))))
(assert (forall ((x_127855 E_69) (x_127856 E_69))
	(isPlus_16 (Plus_139 x_127855 x_127856))))
(assert (isEX_1 EX_1))
(assert (isEY_1 EY_1))
(assert (forall ((x_127857 E_69) (x_127858 E_69))
	(diseqE_9 (Plus_139 x_127857 x_127858) EX_1)))
(assert (forall ((x_127859 E_69) (x_127860 E_69))
	(diseqE_9 (Plus_139 x_127859 x_127860) EY_1)))
(assert (forall ((x_127861 E_69) (x_127862 E_69))
	(diseqE_9 EX_1 (Plus_139 x_127861 x_127862))))
(assert (forall ((x_127863 E_69) (x_127864 E_69))
	(diseqE_9 EY_1 (Plus_139 x_127863 x_127864))))
(assert (diseqE_9 EX_1 EY_1))
(assert (diseqE_9 EY_1 EX_1))
(assert (forall ((x_127865 E_69) (x_127866 E_69) (x_127867 E_69) (x_127868 E_69))
	(=> (diseqE_9 x_127865 x_127867) (diseqE_9 (Plus_139 x_127865 x_127866) (Plus_139 x_127867 x_127868)))))
(assert (forall ((x_127865 E_69) (x_127866 E_69) (x_127867 E_69) (x_127868 E_69))
	(=> (diseqE_9 x_127866 x_127868) (diseqE_9 (Plus_139 x_127865 x_127866) (Plus_139 x_127867 x_127868)))))
(declare-fun x_127808 (list_418 list_418 list_418) Bool)
(assert (forall ((x_127813 list_418) (z_2805 Tok_2) (xs_916 list_418) (y_3275 list_418))
	(=> (x_127808 x_127813 xs_916 y_3275) (x_127808 (cons_412 z_2805 x_127813) (cons_412 z_2805 xs_916) y_3275))))
(assert (forall ((x_127814 list_418))
	(x_127808 x_127814 nil_480 x_127814)))
(declare-fun linTerm_2 (list_418 E_69) Bool)
(declare-fun lin_2 (list_418 E_69) Bool)
(assert (linTerm_2 (cons_412 Y_3274 nil_480) EY_1))
(assert (linTerm_2 (cons_412 X_127807 nil_480) EX_1))
(assert (forall ((x_127817 list_418) (x_127818 list_418) (x_127819 list_418) (y_3276 E_69) (z_2806 E_69))
	(=> (and (lin_2 x_127818 (Plus_139 y_3276 z_2806)) (x_127808 x_127819 x_127818 (cons_412 D_8 nil_480)) (x_127808 x_127817 (cons_412 C_88 nil_480) x_127819)) (linTerm_2 x_127817 (Plus_139 y_3276 z_2806)))))
(assert (lin_2 (cons_412 Y_3274 nil_480) EY_1))
(assert (lin_2 (cons_412 X_127807 nil_480) EX_1))
(assert (forall ((x_127823 list_418) (x_127824 list_418) (x_127825 list_418) (x_127826 list_418) (a_132 E_69) (b_149 E_69))
	(=> (and (linTerm_2 x_127824 a_132) (linTerm_2 x_127825 b_149) (x_127808 x_127826 (cons_412 Pl_1 nil_480) x_127825) (x_127808 x_127823 x_127824 x_127826)) (lin_2 x_127823 (Plus_139 a_132 b_149)))))
(assert (forall ((x_127828 list_418) (u_36 E_69) (v_37 E_69))
	(=> (and true (diseqE_9 u_36 v_37) (lin_2 x_127828 u_36) (lin_2 x_127828 v_37)) false)))
(check-sat)
